
******************************************************************************
This program contains Ipopt, a library for large-scale nonlinear optimization.
 Ipopt is released as open source code under the Eclipse Public License (EPL).
         For more information visit http://projects.coin-or.org/Ipopt

This version of Ipopt was compiled from source code available at
    https://github.com/IDAES/Ipopt as part of the Institute for the Design of
    Advanced Energy Systems Process Systems Engineering Framework (IDAES PSE
    Framework) Copyright (c) 2018-2019. See https://github.com/IDAES/idaes-pse.

This version of Ipopt was compiled using HSL, a collection of Fortran codes
    for large-scale scientific computation.  All technical papers, sales and
    publicity material resulting from use of the HSL codes within IPOPT must
    contain the following acknowledgement:
        HSL, a collection of Fortran codes for large-scale scientific
        computation. See http://www.hsl.rl.ac.uk.
******************************************************************************

This is Ipopt version 3.13.2, running with linear solver ma27.

Number of nonzeros in equality constraint Jacobian...:      928
Number of nonzeros in inequality constraint Jacobian.:        0
Number of nonzeros in Lagrangian Hessian.............:      806

Total number of variables............................:      403
                     variables with only lower bounds:      124
                variables with lower and upper bounds:      217
                     variables with only upper bounds:        0
Total number of equality constraints.................:      402
Total number of inequality constraints...............:        0
        inequality constraints with only lower bounds:        0
   inequality constraints with lower and upper bounds:        0
        inequality constraints with only upper bounds:        0

iter    objective    inf_pr   inf_du lg(mu)  ||d||  lg(rg) alpha_du alpha_pr  ls
   0  0.0000000e+00 1.20e+00 1.42e-14  -1.0 0.00e+00    -  0.00e+00 0.00e+00   0
   1  1.5349059e-02 1.03e+00 4.96e+04  -1.0 7.53e+04    -  5.29e-01 1.45e-01h  1
   2  1.6841418e-02 1.02e+00 5.10e+04  -1.0 1.90e+05    -  5.04e-01 6.89e-03h  1
   3  1.3054767e+00 7.69e-01 1.36e+05  -1.0 2.33e+05    -  8.98e-02 2.81e-01h  1
   4  1.7241947e+01 2.02e-01 2.79e+04  -1.0 1.82e+05    -  3.58e-01 9.90e-01h  1
   5  2.0127084e+01 1.99e-02 1.69e+04  -1.0 2.03e+04    -  8.38e-01 9.90e-01h  1
   6  2.0186789e+01 3.91e-04 2.21e+02  -1.0 5.96e+02    -  9.89e-01 9.90e-01h  1
   7  2.0204564e+01 4.03e-06 1.68e+06  -1.0 1.18e+02    -  8.88e-01 9.90e-01h  1
   8  2.0278015e+01 2.09e-05 3.91e+08  -1.0 7.80e+03    -  3.02e-01 6.19e-02f  5
   9  2.0501817e+01 1.93e-05 6.57e+08  -1.0 1.49e+03    -  6.12e-01 9.90e-01H  1
iter    objective    inf_pr   inf_du lg(mu)  ||d||  lg(rg) alpha_du alpha_pr  ls
  10  2.1103668e+01 9.61e-06 5.47e+06  -1.0 3.95e+03    -  9.90e-01 9.90e-01H  1
  11  2.0203033e+01 1.74e-03 1.80e+11  -2.5 9.25e+03    -  9.97e-01 6.34e-01f  1
  12  2.0190523e+01 5.72e-06 4.32e+09  -2.5 8.16e+01    -  1.00e+00 9.97e-01h  1
In iteration 12, 31 Slacks too small, adjusting variable bounds
  13  2.0190123e+01 1.54e-08 1.35e+12  -2.5 2.64e+00    -  1.00e+00 9.97e-01h  1
  14  2.0190122e+01 3.92e-12 2.91e-02  -2.5 3.80e-03    -  1.00e+00 1.00e+00h  1
  15  2.0187150e+01 1.68e-09 9.73e+10  -9.0 2.05e+01    -  1.00e+00 9.52e-01F  1
  16  2.0187150e+01 7.06e-12 1.15e-05  -9.0 8.39e-05    -  1.00e+00 1.00e+00h  1
  17  2.0187150e+01 4.48e-12 1.16e-10  -9.0 5.73e-07    -  1.00e+00 1.00e+00h  1

Number of Iterations....: 17

                                   (scaled)                 (unscaled)
Objective...............:   2.0187150363564108e+01    2.0187150363564108e+01
Dual infeasibility......:   1.1641532182693481e-10    1.1641532182693481e-10
Constraint violation....:   2.1338486533295509e-12    4.4821923950166812e-12
Complementarity.........:   9.0909090909090931e-10    9.0909090909090931e-10
Overall NLP error.......:   2.5260312395736253e-12    9.0909090909090931e-10


Number of objective function evaluations             = 32
Number of objective gradient evaluations             = 18
Number of equality constraint evaluations            = 32
Number of inequality constraint evaluations          = 0
Number of equality constraint Jacobian evaluations   = 18
Number of inequality constraint Jacobian evaluations = 0
Number of Lagrangian Hessian evaluations             = 17
Total CPU secs in IPOPT (w/o function evaluations)   =      0.039
Total CPU secs in NLP function evaluations           =      0.462

EXIT: Optimal Solution Found.
